! r2SCAN-3c OPT TIGHTSCF def2/J
%maxcore 20000
%PAL NPROCS 10 END

*xyzfile 5 1  ORCA.xyz
