! r2SCAN-3c OPT NORMALSCF def2/J
%maxcore 20000
%PAL NPROCS 20 END

*xyzfile 5 1 N4_fromN5.xyz
