! r2SCAN-3c OPT NORMALSCF def2/J
%maxcore 20000
%PAL NPROCS 20 END

*xyzfile 5 1 1a_gamma_ORCA_input.xyz
